NAME: PointSet_Angle_25_9
TYPE: TSP
COMMENT: Points chosen discrete uniformly at random out of ${0, \ldots, 500}^2$.
DIMENSION: 25
EDGE_WEIGHT_TYPE: EUC_2D
NODE_COORD_SECTION
1 129 128
2 342 386
3 10 78
4 98 52
5 423 187
6 310 235
7 42 86
8 268 281
9 369 353
10 470 430
11 210 500
12 30 443
13 440 31
14 121 244
15 195 380
16 12 324
17 254 100
18 209 265
19 178 54
20 63 347
21 488 120
22 81 29
23 206 350
24 310 321
25 449 25
EOF
